(set-logic QF_FPABV)
(declare-fun b51 () (_ FP 11 53))
(declare-fun b13 () (_ FP 11 53))
(declare-fun b10 () (_ FP 11 53))
(declare-fun b11 () (_ FP 11 53))
(declare-fun b17 () (_ FP 11 53))
(declare-fun b54 () (_ FP 11 53))
(declare-fun b20 () (_ FP 11 53))
(define-fun .3 () RoundingMode roundNearestTiesToEven)
(define-fun .9 () (_ FP 11 53) b11)
(define-fun .10 () (_ FP 11 53) (- .9))
(define-fun .11 () (_ FP 11 53) b10)
(define-fun .12 () (_ FP 11 53) (+ .3 .10 .11))
(define-fun .13 () (_ FP 11 53) b17)
(define-fun .14 () Bool (< .12 .13))
(define-fun .15 () (_ FP 11 53) b20)
(define-fun .16 () (_ FP 11 53) (* .3 .11 .15))
(define-fun .17 () (_ FP 11 53) b13)
(define-fun .18 () (_ FP 11 53) (+ .3 .13 .17))
(define-fun .19 () Bool (< .18 .16))
(define-fun .20 () Bool (and .14 .19))
(define-fun .21 () (_ FP 11 53) (+ .3 .9 .11))
(define-fun .22 () Bool (< .21 .17))
(define-fun .23 () Bool (and .20 .22))
(define-fun .24 () (_ FP 11 53) b51)
(define-fun .25 () Bool (<= .11 .24))
(define-fun .26 () Bool (and .23 .25))
(define-fun .27 () (_ FP 11 53) b54)
(define-fun .28 () Bool (<= .27 .11))
(define-fun .29 () Bool (and .26 .28))
(define-fun .30 () Bool (<= .9 .24))
(define-fun .31 () Bool (and .29 .30))
(define-fun .32 () Bool (<= .27 .9))
(define-fun .33 () Bool (and .31 .32))
(define-fun .34 () Bool (<= .17 .24))
(define-fun .35 () Bool (and .33 .34))
(define-fun .36 () Bool (<= .27 .17))
(define-fun .37 () Bool (and .35 .36))
(define-fun .38 () Bool (<= .13 .24))
(define-fun .39 () Bool (and .37 .38))
(define-fun .40 () Bool (<= .27 .13))
(define-fun .41 () Bool (and .39 .40))
(assert .41)
(check-sat)
